p cnf 32 184
4 7 11 16 22 29 37 46 0
8 12 17 23 30 38 47 57 0
13 18 24 31 39 48 58 69 0
19 25 32 40 49 59 70 82 0
-4 -8 0
-7 -12 0
-11 -17 0
-16 -23 0
-22 -30 0
-29 -38 0
-37 -47 0
-46 -57 0
-4 -13 0
-7 -18 0
-11 -24 0
-16 -31 0
-22 -39 0
-29 -48 0
-37 -58 0
-46 -69 0
-4 -19 0
-7 -25 0
-11 -32 0
-16 -40 0
-22 -49 0
-29 -59 0
-37 -70 0
-46 -82 0
-8 -13 0
-12 -18 0
-17 -24 0
-23 -31 0
-30 -39 0
-38 -48 0
-47 -58 0
-57 -69 0
-8 -19 0
-12 -25 0
-17 -32 0
-23 -40 0
-30 -49 0
-38 -59 0
-47 -70 0
-57 -82 0
-13 -19 0
-18 -25 0
-24 -32 0
-31 -40 0
-39 -49 0
-48 -59 0
-58 -70 0
-69 -82 0
-4 -17 0
-4 -47 0
-4 -57 0
-7 -57 0
-11 -23 0
-11 -30 0
-11 -38 0
-16 -30 0
-29 -47 0
-29 -57 0
-37 -57 0
-4 -24 0
-4 -58 0
-4 -69 0
-7 -69 0
-11 -31 0
-11 -39 0
-11 -48 0
-16 -39 0
-29 -58 0
-29 -69 0
-37 -69 0
-4 -32 0
-4 -70 0
-4 -82 0
-7 -82 0
-11 -40 0
-11 -49 0
-11 -59 0
-16 -49 0
-29 -70 0
-29 -82 0
-37 -82 0
-8 -11 0
-8 -37 0
-8 -46 0
-12 -46 0
-17 -16 0
-17 -22 0
-17 -29 0
-23 -22 0
-38 -37 0
-38 -46 0
-47 -46 0
-8 -24 0
-8 -58 0
-8 -69 0
-12 -69 0
-17 -31 0
-17 -39 0
-17 -48 0
-23 -39 0
-38 -58 0
-38 -69 0
-47 -69 0
-8 -32 0
-8 -70 0
-8 -82 0
-12 -82 0
-17 -40 0
-17 -49 0
-17 -59 0
-23 -49 0
-38 -70 0
-38 -82 0
-47 -82 0
-13 -11 0
-13 -37 0
-13 -46 0
-18 -46 0
-24 -16 0
-24 -22 0
-24 -29 0
-31 -22 0
-48 -37 0
-48 -46 0
-58 -46 0
-13 -17 0
-13 -47 0
-13 -57 0
-18 -57 0
-24 -23 0
-24 -30 0
-24 -38 0
-31 -30 0
-48 -47 0
-48 -57 0
-58 -57 0
-13 -32 0
-13 -70 0
-13 -82 0
-18 -82 0
-24 -40 0
-24 -49 0
-24 -59 0
-31 -49 0
-48 -70 0
-48 -82 0
-58 -82 0
-19 -11 0
-19 -37 0
-19 -46 0
-25 -46 0
-32 -16 0
-32 -22 0
-32 -29 0
-40 -22 0
-59 -37 0
-59 -46 0
-70 -46 0
-19 -17 0
-19 -47 0
-19 -57 0
-25 -57 0
-32 -23 0
-32 -30 0
-32 -38 0
-40 -30 0
-59 -47 0
-59 -57 0
-70 -57 0
-19 -24 0
-19 -58 0
-19 -69 0
-25 -69 0
-32 -31 0
-32 -39 0
-32 -48 0
-40 -39 0
-59 -58 0
-59 -69 0
-70 -69 0
